




Route 1: 90 82 99 52 86 74 58 77 25 23 21 48 18 19 49 20 22 24 57 83 64 51 76 84 95 56 66 65 91 92 80
Route 2: 81 54 96 93 94 67 62 85 63 89 33 32 30 28 26 27 29 31 34 50 71 72 41 39 38 37 35 36 40 43 44 42 61 68 
Route 3: 69 55 100 70 2 4 46 45 1 3 5 8 6 7 79 73 60 78 17 47 14 12 16 15 13 97 75 59 87 9 11 10 53 88 98 